data/mip_solutions/furman_sahinidis/transportation/7sp-s1_gurobi.sol
Elapsed time: 0.0885820388794
Nodes explored: 0
Upper bound: 10.0
Lower bound: 10.0
y[0,0]=1
y[1,0]=1
y[1,1]=1
y[2,0]=1
y[2,1]=1
y[3,0]=1
y[3,1]=1
y[4,0]=1
y[5,0]=1
y[6,0]=1
q[0,6,0,6]=5831.6
q[1,4,0,5]=2268.0
q[1,5,0,5]=3693.6
q[1,6,0,6]=3952.8
q[1,7,1,7]=648.0
q[2,5,0,5]=3568.2
q[2,6,0,6]=3818.6
q[2,7,1,7]=626.0
q[3,2,0,4]=1264.2
q[3,2,0,5]=3392.1
q[3,3,0,4]=3927.0
q[3,4,0,4]=1963.5
q[3,5,0,5]=3197.7
q[3,6,0,6]=3422.1
q[3,7,1,7]=561.0
q[4,3,0,3]=5334.7
q[4,3,0,4]=2743.3
q[4,4,0,4]=4039.0
q[4,5,0,5]=6577.8
q[4,6,0,6]=5885.4
q[5,1,0,1]=-2.52697977846e-10
q[5,1,0,3]=12760.4
q[5,2,0,2]=14508.4
q[5,3,0,3]=12236.0
q[5,4,0,4]=6118.0
q[5,5,0,5]=9963.6
q[5,6,0,6]=3670.8
q[6,0,0,1]=30942.0
q[6,0,0,2]=33050.6
q[6,0,0,3]=9778.9
q[6,0,0,6]=8371.7
